
  22    4
  10   10   10   10

   0   0   0   0   0   6 2 3 4 5 8 9 
   7  10  10  10  10   4 21 14 11 7 
   8  10  10  10  10   2 10 6 
   2  10  10  10  10   5 21 14 13 12 10 
   2  10  10  10  10   3 21 14 7 
   1  10  10  10  10   5 21 19 14 13 12 
   1  10  10  10  10   3 20 13 10 
   3  10  10  10  10   2 13 10 
   3  10  10  10  10   4 19 18 15 14 
  10  10  10  10  10   4 19 18 16 15 
   8  10  10  10  10   3 19 18 15 
   7  10  10  10  10   3 20 18 17 
   2  10  10  10  10   2 18 15 
  10  10  10  10  10   2 20 17 
   2  10  10  10  10   1 17 
   1  10  10  10  10   1 17 
   4  10  10  10  10   1 22
   9  10  10  10  10   1 22
   1  10  10  10  10   1 22
   5  10  10  10  10   1 22
   4  10  10  10  10   1 22
   0   0   0   0   0   0 
